;test regex echo '0000-00-00-title.ext' | sed -En 's/[0-9]{4}-[0-9]{2}-[0-9]{2}-(.+)\.ext/\1/p'
(declare-const X String)
(assert (str.in_re X (re.union (re.++ (str.to_re "e") (re.++ (str.to_re "c") (re.++ (str.to_re "h") (re.++ (str.to_re "o") (re.++ (str.to_re " ") (re.++ (str.to_re "\u{27}") (re.++ (str.to_re "0000") (re.++ (str.to_re "-") (re.++ (str.to_re "00") (re.++ (str.to_re "-") (re.++ (str.to_re "00") (re.++ (str.to_re "-") (re.++ (str.to_re "t") (re.++ (str.to_re "i") (re.++ (str.to_re "t") (re.++ (str.to_re "l") (re.++ (str.to_re "e") (re.++ (re.diff re.allchar (str.to_re "\n")) (re.++ (str.to_re "e") (re.++ (str.to_re "x") (re.++ (str.to_re "t") (re.++ (str.to_re "\u{27}") (str.to_re " "))))))))))))))))))))))) (re.++ (str.to_re " ") (re.++ (str.to_re "s") (re.++ (str.to_re "e") (re.++ (str.to_re "d") (re.++ (str.to_re " ") (re.++ (str.to_re "-") (re.++ (str.to_re "E") (re.++ (str.to_re "n") (re.++ (str.to_re " ") (re.++ (str.to_re "\u{27}") (re.++ (str.to_re "s") (re.++ (str.to_re "/") (re.++ ((_ re.loop 4 4) (re.range "0" "9")) (re.++ (str.to_re "-") (re.++ ((_ re.loop 2 2) (re.range "0" "9")) (re.++ (str.to_re "-") (re.++ ((_ re.loop 2 2) (re.range "0" "9")) (re.++ (str.to_re "-") (re.++ (re.+ (re.diff re.allchar (str.to_re "\n"))) (re.++ (str.to_re ".") (re.++ (str.to_re "e") (re.++ (str.to_re "x") (re.++ (str.to_re "t") (re.++ (str.to_re "/") (re.++ (_ re.reference 1) (re.++ (str.to_re "/") (re.++ (str.to_re "p") (str.to_re "\u{27}")))))))))))))))))))))))))))))))
; sanitize danger characters:  < > ' " &
(assert (not (str.in_re X (re.++ re.all (re.union (str.to_re "\u{3c}") (str.to_re "\u{3e}") (str.to_re "\u{27}") (str.to_re "\u{22}") (str.to_re "\u{26}")) re.all))))
(assert (< 9 (str.len X)))
(check-sat)
(get-model)